sat
(:eliminated-vars     12
 :max-memory          18.20
 :memory              18.00
 :nlsat-conflicts     43
 :nlsat-decisions     3
 :nlsat-learned-added 43
 :nlsat-propagations  210
 :nlsat-stages        101
 :num-allocs          17672
 :rlimit-count        12897
 :time                0.01
 :total-time          0.02)
